peakDumbCharging = 11100; 
Machine = anon_enum(16); 
machineSpeed = [3700,3700,3700,3700,3700,3700,3700,3700,3700,3700,3700,3700,3700,3700,3700,3700]; 
machineLoad = [3700,3700,3700,3700,3700,3700,3700,3700,3700,3700,3700,3700,3700,3700,3700,3700]; 
Car = anon_enum(7); 
demandCar = [2240,9720,5800,17760,5520,11320,5840]; 
arrivalCar = [59,57,56,52,51,50,45]; 
departureCar = [61,62,60,59,56,56,48]; 
